200
1000
396
395
394
393
393
392
391
390
389
388
387
387
386
386
386
385
385
382
381
380
379
379
378
378
378
378
377
377
377
377
376
376
374
373
373
370
369
368
368
368
368
367
367
367
367
367
366
366
366
366
365
364
363
362
361
361
361
361
359
359
358
357
357
356
356
355
353
352
350
349
348
348
348
348
348
347
347
347
346
345
345
345
344
344
343
343
342
342
342
341
340
339
336
336
336
336
335
335
335
334
334
333
331
330
328
328
328
327
327
327
325
324
324
323
322
322
322
321
321
320
320
320
320
320
318
317
317
315
315
315
315
314
314
313
313
312
311
309
309
309
309
308
307
307
306
305
305
304
304
303
302
302
301
301
301
301
300
299
299
298
298
297
296
296
294
293
293
292
291
290
290
289
289
288
288
288
286
286
284
284
284
283
283
282
281
280
279
275
275
274
273
272
271
270
269
269
269
268
267
267
